100
128
15
5
24
10
50
8
16
54
34
34
6
14
6
25
21
10
43
3
3
32
28
4
39
15
48
35
43
16
4
46
62
10
46
32
42
30
40
61
63
35
48
17
40
27
19
36
60
48
46
22
23
20
3
5
40
23
17
20
4
22
45
30
52
64
24
23
36
35
56
42
42
63
64
44
16
4
45
63
26
61
62
26
49
46
39
39
40
45
43
43
26
59
30
19
60
27
40
28
38
62